76
Time limit set to 60 seconds
Running CP solver
/home/omastto1/General-Optimization-Solver/src/solvers/mmrcpsp.py:42(stream:108:6): Warning: Cumulative expression 'pulse': height is zero, expression is zero everywhere.
                                                                                               VarCumulAtom_149 = pulse(task_0_mode_0, 0)
/home/omastto1/General-Optimization-Solver/src/solvers/mmrcpsp.py:42(stream:108:1254): Warning: Cumulative expression 'pulse': height is zero, expression is zero everywhere.
                                                                                                  VarCumulAtom_198 = pulse(task_17_mode_0, 0)
/home/omastto1/General-Optimization-Solver/src/solvers/mmrcpsp.py:42(stream:109:6): Warning: Cumulative expression 'pulse': height is zero, expression is zero everywhere.
                                                                                               VarCumulAtom_202 = pulse(task_0_mode_0, 0)
/home/omastto1/General-Optimization-Solver/src/solvers/mmrcpsp.py:42(stream:109:1255): Warning: Cumulative expression 'pulse': height is zero, expression is zero everywhere.
                                                                                                  VarCumulAtom_251 = pulse(task_17_mode_0, 0)
 ! --------------------------------------------------- CP Optimizer 20.1.0.0 --
 ! Minimization problem - 69 variables, 51 constraints
 ! TimeLimit            = 60
 ! Workers              = 14
 ! LogVerbosity         = Terse
 ! Initial process time : 0.01s (0.01s extraction + 0.00s propagation)
 !  . Log search space  : 156.8 (before), 156.8 (after)
 !  . Memory usage      : 754.6 kB (before), 754.6 kB (after)
 ! Using parallel search with 14 workers.
 ! ----------------------------------------------------------------------------
 !          Best Branches  Non-fixed    W       Branch decision
                        0         69                 -
 + New bound is 22
 ! Using iterative diving.
 ! Using temporal relaxation.
 *            34       46  0.53s        1      (gap is 35.29%)
 *            32      111  0.53s        1      (gap is 31.25%)
 *            31      151  0.53s        1      (gap is 29.03%)
 *            30      225  0.53s        1      (gap is 26.67%)
 *            29      281  0.53s        1      (gap is 24.14%)
 *            28      343  0.53s        1      (gap is 21.43%)
 *            26      427  0.53s        1      (gap is 15.38%)
 *            24      458  0.53s        1      (gap is 8.33%)
 *            23      489  0.53s        1      (gap is 4.35%)
 *            22      642  0.53s        1      (gap is 0.00%)
 ! ----------------------------------------------------------------------------
 ! Search completed, 10 solutions found.
 ! Best objective         : 22 (optimal - effective tol. is 0)
 ! Best bound             : 22
 ! ----------------------------------------------------------------------------
 ! Number of branches     : 71227
 ! Number of fails        : 8413
 ! Total memory usage     : 9.7 MB (9.6 MB CP Optimizer + 0.1 MB Concert)
 ! Time spent in solve    : 0.63s (0.63s engine + 0.01s extraction)
 ! Search speed (br. / s) : 114882.3
 ! ----------------------------------------------------------------------------
task_0: (start=0, end=0, size=0, length=0)
Task 0 is scheduled in mode 0 from 0 to 0
task_1: (start=0, end=7, size=7, length=7)
Task 1 is scheduled in mode 2 from 0 to 7
task_2: (start=0, end=1, size=1, length=1)
Task 2 is scheduled in mode 0 from 0 to 1
task_3: (start=0, end=4, size=4, length=4)
Task 3 is scheduled in mode 2 from 0 to 4
task_4: (start=4, end=11, size=7, length=7)
Task 4 is scheduled in mode 2 from 4 to 11
task_5: (start=1, end=7, size=6, length=6)
Task 5 is scheduled in mode 1 from 1 to 7
task_6: (start=4, end=5, size=1, length=1)
Task 6 is scheduled in mode 0 from 4 to 5
task_7: (start=7, end=12, size=5, length=5)
Task 7 is scheduled in mode 0 from 7 to 12
task_8: (start=5, end=12, size=7, length=7)
Task 8 is scheduled in mode 0 from 5 to 12
task_9: (start=12, end=14, size=2, length=2)
Task 9 is scheduled in mode 0 from 12 to 14
task_10: (start=14, end=20, size=6, length=6)
Task 10 is scheduled in mode 2 from 14 to 20
task_11: (start=12, end=18, size=6, length=6)
Task 11 is scheduled in mode 0 from 12 to 18
task_12: (start=12, end=20, size=8, length=8)
Task 12 is scheduled in mode 2 from 12 to 20
task_13: (start=11, end=17, size=6, length=6)
Task 13 is scheduled in mode 1 from 11 to 17
task_14: (start=18, end=22, size=4, length=4)
Task 14 is scheduled in mode 0 from 18 to 22
task_15: (start=14, end=22, size=8, length=8)
Task 15 is scheduled in mode 2 from 14 to 22
task_16: (start=20, end=22, size=2, length=2)
Task 16 is scheduled in mode 0 from 20 to 22
task_17: (start=22, end=22, size=0, length=0)
Task 17 is scheduled in mode 0 from 22 to 22
Optimal solution found
Objective value: 22
Solution is optimal.
